p cnf 77 215
c t mc
-2 -3 0
2 -3 0
5 -3 0
5 4 0
3 -4 -5 0
1 -5 -6 0
-1 5 -6 0
1 5 6 0
-1 -5 6 0
9 -7 0
9 -8 0
7 8 -9 0
6 9 -10 0
-6 -9 -10 0
6 -9 10 0
-6 9 10 0
12 11 0
12 2 0
-11 -2 -12 0
14 12 0
14 -13 0
-12 13 -14 0
-1 15 -16 0
1 -15 -16 0
-1 -15 16 0
1 15 16 0
-19 -17 0
-19 18 0
17 -18 19 0
-20 16 0
-20 -19 0
-16 19 20 0
21 14 0
21 -20 0
-14 20 -21 0
-18 -13 -23 0
18 13 -23 0
-18 13 23 0
18 -13 23 0
24 -22 0
24 23 0
22 -23 -24 0
27 25 0
27 26 0
-25 -26 -27 0
-24 -27 -28 0
24 27 -28 0
-24 27 28 0
24 -27 28 0
-29 2 -30 0
29 -2 -30 0
-29 -2 30 0
29 2 30 0
32 -30 0
32 31 0
30 -31 -32 0
33 -28 0
33 32 0
28 -32 -33 0
-34 21 0
-34 33 0
-21 -33 34 0
10 -34 -35 0
-10 34 -35 0
10 34 35 0
-10 -34 35 0
37 29 0
37 -36 0
-29 36 -37 0
39 38 0
39 -3 0
-38 3 -39 0
-40 -37 0
-40 -39 0
37 39 40 0
41 -8 0
41 7 0
8 -7 -41 0
31 -41 -42 0
-31 41 -42 0
31 41 42 0
-31 -41 42 0
44 -22 0
44 -4 0
22 4 -44 0
45 43 0
45 -44 0
-43 44 -45 0
-46 -42 0
-46 45 0
42 -45 46 0
40 46 -47 0
-40 -46 -47 0
40 -46 47 0
-40 46 47 0
-49 -1 0
-49 48 0
1 -48 49 0
47 49 -50 0
-47 -49 -50 0
47 -49 50 0
-47 49 50 0
51 -31 0
51 29 0
31 -29 -51 0
-52 51 0
-52 -2 0
-51 2 52 0
-5 -7 -53 0
5 7 -53 0
-5 7 53 0
5 -7 53 0
54 -7 0
54 38 0
7 -38 -54 0
55 53 0
55 -54 0
-53 54 -55 0
-56 2 0
-56 19 0
-2 -19 56 0
-57 -31 0
-57 56 0
31 -56 57 0
58 -55 0
58 57 0
55 -57 -58 0
-2 -51 -59 0
2 51 -59 0
-2 51 59 0
2 -51 59 0
60 41 0
60 22 0
-41 -22 -60 0
61 59 0
61 60 0
-59 -60 -61 0
58 61 -62 0
-58 -61 -62 0
58 -61 62 0
-58 61 62 0
63 52 0
63 -62 0
-52 62 -63 0
-64 -15 0
-64 37 0
15 -37 64 0
66 65 0
66 -2 0
-65 2 -66 0
-67 64 0
-67 -66 0
-64 66 67 0
-68 22 0
-68 -1 0
-22 1 68 0
-69 -67 0
-69 68 0
67 -68 69 0
70 -63 0
70 -69 0
63 69 -70 0
-3 -56 -71 0
3 56 -71 0
-3 56 71 0
3 -56 71 0
-72 -70 0
-72 -71 0
70 71 72 0
73 50 0
73 72 0
-50 -72 -73 0
-74 -1 0
-74 -2 0
1 2 74 0
-74 -5 -75 0
74 5 -75 0
-74 5 75 0
74 -5 75 0
76 73 0
76 75 0
-73 -75 -76 0
35 -76 -77 0
-35 76 -77 0
35 76 77 0
-35 -76 77 0
-16 27 -69 0
46 76 -5 75 45 -16 40 53 0
-13 -7 67 -19 -48 38 0
11 28 -26 -39 -56 16 22 0
-26 33 -5 0
39 66 11 41 28 0
37 38 0
-20 27 -28 0
-32 13 0
-28 66 55 -73 -12 -33 52 39 36 0
73 -56 -38 0
47 59 -7 73 24 66 0
64 10 -54 -38 0
68 21 17 -27 -47 -41 -49 -30 0
-18 -16 57 48 -76 -37 14 -23 31 0
-51 65 -71 0
-26 43 0
60 72 28 27 -8 3 -34 40 21 0
-53 -4 -47 0
25 7 51 -71 64 -60 52 40 13 0
-19 -59 74 -58 53 73 12 63 31 0
-52 75 -64 -70 44 28 53 0
57 16 0
-56 -36 -3 37 6 -22 -26 0
-46 6 41 55 -28 8 -67 34 0
-37 -8 13 30 52 35 -34 0
71 64 0
-68 62 -56 -60 72 36 0
77 0
